0 1 5 5 9 3 5 2 3 3 9 5
1 0 3 2 7 2 8 2 2 9 4 1
5 3 0 1 1 5 8 5 2 5 3 3
5 2 1 0 7 9 4 5 3 8 4 4
9 7 1 7 0 7 4 4 5 3 8 1
3 2 5 9 7 0 6 3 3 4 6 1
5 8 8 4 4 6 0 5 1 5 9 3
2 2 5 5 4 3 5 0 5 7 6 7
3 2 2 3 5 3 1 5 0 9 7 8
3 9 5 8 3 4 5 7 9 0 2 6
9 4 3 4 8 6 9 6 7 2 0 5
5 1 3 4 1 1 3 7 8 6 5 0
